p cnf 100 1
100 0
w 1 0.532454
w 2 1 1
w 2 -1 0
w 3 2 0.00371903
w 3 -2 0.853545
w 4 3 0
w 4 -3 1
w 5 4 0.919697
w 5 -4 0.261094
w 6 5 0.401944
w 6 -5 0.411285
w 7 6 0
w 7 -6 1
w 8 7 1
w 8 -7 0
w 9 8 0.34174
w 9 -8 0.896768
w 10 9 0.84849
w 10 -9 0.919891
w 11 1 0
w 11 -1 1
w 12 11 2 0.00736408
w 12 11 -2 0.98583
w 12 -11 2 0.487211
w 12 -11 -2 0.736082
w 13 12 3 0.794081
w 13 12 -3 0.586199
w 13 -12 3 0.0325362
w 13 -12 -3 0.7978
w 14 13 4 0
w 14 13 -4 1
w 14 -13 4 0
w 14 -13 -4 1
w 15 14 5 0
w 15 14 -5 1
w 15 -14 5 0
w 15 -14 -5 0
w 16 15 6 0
w 16 15 -6 0
w 16 -15 6 0
w 16 -15 -6 1
w 17 16 7 0.947109
w 17 16 -7 0.928329
w 17 -16 7 0.841643
w 17 -16 -7 0.982212
w 18 17 8 1
w 18 17 -8 0
w 18 -17 8 0
w 18 -17 -8 1
w 19 18 9 0.92854
w 19 18 -9 0.662221
w 19 -18 9 0.311857
w 19 -18 -9 0.961076
w 20 19 10 1
w 20 19 -10 1
w 20 -19 10 0
w 20 -19 -10 1
w 21 11 0.277002
w 21 -11 0.0920474
w 22 21 12 1
w 22 21 -12 0
w 22 -21 12 0
w 22 -21 -12 0
w 23 22 13 0.545261
w 23 22 -13 0.379893
w 23 -22 13 0.884965
w 23 -22 -13 0.47359
w 24 23 14 0
w 24 23 -14 1
w 24 -23 14 0
w 24 -23 -14 0
w 25 24 15 0
w 25 24 -15 1
w 25 -24 15 0
w 25 -24 -15 0
w 26 25 16 0.197889
w 26 25 -16 0.592846
w 26 -25 16 0.645869
w 26 -25 -16 0.2111
w 27 26 17 0.633843
w 27 26 -17 0.196141
w 27 -26 17 0.107812
w 27 -26 -17 0.72589
w 28 27 18 0.835136
w 28 27 -18 0.159045
w 28 -27 18 0.262359
w 28 -27 -18 0.300558
w 29 28 19 0.200216
w 29 28 -19 0.845819
w 29 -28 19 0.997077
w 29 -28 -19 0.085181
w 30 29 20 0
w 30 29 -20 1
w 30 -29 20 0
w 30 -29 -20 0
w 31 21 0.291682
w 31 -21 0.391521
w 32 31 22 0.424506
w 32 31 -22 0.285788
w 32 -31 22 0.9604
w 32 -31 -22 0.0173527
w 33 32 23 0.171499
w 33 32 -23 0.848163
w 33 -32 23 0.5655
w 33 -32 -23 0.367641
w 34 33 24 0.29139
w 34 33 -24 0.922598
w 34 -33 24 0.791111
w 34 -33 -24 0.450435
w 35 34 25 1
w 35 34 -25 0
w 35 -34 25 1
w 35 -34 -25 0
w 36 35 26 1
w 36 35 -26 1
w 36 -35 26 1
w 36 -35 -26 0
w 37 36 27 1
w 37 36 -27 1
w 37 -36 27 0
w 37 -36 -27 0
w 38 37 28 0.762529
w 38 37 -28 0.820576
w 38 -37 28 0.909131
w 38 -37 -28 0.722929
w 39 38 29 0.840788
w 39 38 -29 0.894429
w 39 -38 29 0.686092
w 39 -38 -29 0.406289
w 40 39 30 1
w 40 39 -30 1
w 40 -39 30 0
w 40 -39 -30 0
w 41 31 1
w 41 -31 0
w 42 41 32 0.215734
w 42 41 -32 0.754797
w 42 -41 32 0.462337
w 42 -41 -32 0.280432
w 43 42 33 0
w 43 42 -33 0
w 43 -42 33 0
w 43 -42 -33 1
w 44 43 34 0.879684
w 44 43 -34 0.193574
w 44 -43 34 0.0642006
w 44 -43 -34 0.503027
w 45 44 35 0.884777
w 45 44 -35 0.412157
w 45 -44 35 0.679033
w 45 -44 -35 0.722706
w 46 45 36 1
w 46 45 -36 0
w 46 -45 36 0
w 46 -45 -36 0
w 47 46 37 0
w 47 46 -37 1
w 47 -46 37 1
w 47 -46 -37 1
w 48 47 38 1
w 48 47 -38 1
w 48 -47 38 0
w 48 -47 -38 0
w 49 48 39 0
w 49 48 -39 0
w 49 -48 39 0
w 49 -48 -39 1
w 50 49 40 1
w 50 49 -40 1
w 50 -49 40 1
w 50 -49 -40 0
w 51 41 1
w 51 -41 0
w 52 51 42 0
w 52 51 -42 1
w 52 -51 42 0
w 52 -51 -42 0
w 53 52 43 0.364414
w 53 52 -43 0.0815941
w 53 -52 43 0.641924
w 53 -52 -43 0.84846
w 54 53 44 0.0317464
w 54 53 -44 0.857354
w 54 -53 44 0.307383
w 54 -53 -44 0.176366
w 55 54 45 0
w 55 54 -45 0
w 55 -54 45 0
w 55 -54 -45 1
w 56 55 46 0.903072
w 56 55 -46 0.106578
w 56 -55 46 0.461085
w 56 -55 -46 0.480668
w 57 56 47 0
w 57 56 -47 1
w 57 -56 47 0
w 57 -56 -47 1
w 58 57 48 1
w 58 57 -48 0
w 58 -57 48 1
w 58 -57 -48 1
w 59 58 49 0
w 59 58 -49 1
w 59 -58 49 0
w 59 -58 -49 1
w 60 59 50 0
w 60 59 -50 1
w 60 -59 50 0
w 60 -59 -50 0
w 61 51 1
w 61 -51 0
w 62 61 52 0.0311917
w 62 61 -52 0.72205
w 62 -61 52 0.621742
w 62 -61 -52 0.59496
w 63 62 53 0.728319
w 63 62 -53 0.0560444
w 63 -62 53 0.10579
w 63 -62 -53 0.132164
w 64 63 54 0.120157
w 64 63 -54 0.718052
w 64 -63 54 0.5914
w 64 -63 -54 0.347256
w 65 64 55 0
w 65 64 -55 1
w 65 -64 55 0
w 65 -64 -55 1
w 66 65 56 0.181475
w 66 65 -56 0.340478
w 66 -65 56 0.272514
w 66 -65 -56 0.198534
w 67 66 57 1
w 67 66 -57 0
w 67 -66 57 0
w 67 -66 -57 0
w 68 67 58 1
w 68 67 -58 0
w 68 -67 58 0
w 68 -67 -58 1
w 69 68 59 0.623118
w 69 68 -59 0.0106931
w 69 -68 59 0.748456
w 69 -68 -59 0.728908
w 70 69 60 0
w 70 69 -60 1
w 70 -69 60 0
w 70 -69 -60 1
w 71 61 1
w 71 -61 0
w 72 71 62 0.556871
w 72 71 -62 0.0824745
w 72 -71 62 0.382931
w 72 -71 -62 0.552441
w 73 72 63 0
w 73 72 -63 1
w 73 -72 63 0
w 73 -72 -63 0
w 74 73 64 0
w 74 73 -64 1
w 74 -73 64 1
w 74 -73 -64 1
w 75 74 65 0.569871
w 75 74 -65 0.809373
w 75 -74 65 0.051566
w 75 -74 -65 0.262282
w 76 75 66 0
w 76 75 -66 1
w 76 -75 66 1
w 76 -75 -66 0
w 77 76 67 0.010464
w 77 76 -67 0.0660255
w 77 -76 67 0.933994
w 77 -76 -67 0.206785
w 78 77 68 0
w 78 77 -68 0
w 78 -77 68 1
w 78 -77 -68 1
w 79 78 69 0
w 79 78 -69 1
w 79 -78 69 1
w 79 -78 -69 0
w 80 79 70 0.547209
w 80 79 -70 0.479962
w 80 -79 70 0.933155
w 80 -79 -70 0.0196279
w 81 71 1
w 81 -71 0
w 82 81 72 0.100712
w 82 81 -72 0.753914
w 82 -81 72 0.851781
w 82 -81 -72 0.533204
w 83 82 73 0.862519
w 83 82 -73 0.694603
w 83 -82 73 0.0212889
w 83 -82 -73 0.539186
w 84 83 74 0.0873143
w 84 83 -74 0.47318
w 84 -83 74 0.911852
w 84 -83 -74 0.222939
w 85 84 75 0.675507
w 85 84 -75 0.441038
w 85 -84 75 0.900304
w 85 -84 -75 0.991603
w 86 85 76 0.528741
w 86 85 -76 0.132654
w 86 -85 76 0.867618
w 86 -85 -76 0.353336
w 87 86 77 0.347581
w 87 86 -77 0.286492
w 87 -86 77 0.699491
w 87 -86 -77 0.63892
w 88 87 78 0.288989
w 88 87 -78 0.739632
w 88 -87 78 0.742753
w 88 -87 -78 0.14077
w 89 88 79 1
w 89 88 -79 1
w 89 -88 79 0
w 89 -88 -79 1
w 90 89 80 0.672506
w 90 89 -80 0.667529
w 90 -89 80 0.0156551
w 90 -89 -80 0.584358
w 91 81 0.0109317
w 91 -81 0.259865
w 92 91 82 1
w 92 91 -82 0
w 92 -91 82 0
w 92 -91 -82 0
w 93 92 83 0
w 93 92 -83 1
w 93 -92 83 0
w 93 -92 -83 1
w 94 93 84 1
w 94 93 -84 0
w 94 -93 84 1
w 94 -93 -84 0
w 95 94 85 0.811397
w 95 94 -85 0.193235
w 95 -94 85 0.121181
w 95 -94 -85 0.370323
w 96 95 86 1
w 96 95 -86 0
w 96 -95 86 0
w 96 -95 -86 0
w 97 96 87 0.754655
w 97 96 -87 0.345484
w 97 -96 87 0.508534
w 97 -96 -87 0.765586
w 98 97 88 0.84004
w 98 97 -88 0.676822
w 98 -97 88 0.856818
w 98 -97 -88 0.0946327
w 99 98 89 1
w 99 98 -89 0
w 99 -98 89 1
w 99 -98 -89 1
w 100 99 90 0.989919
w 100 99 -90 0.0684004
w 100 -99 90 0.795348
w 100 -99 -90 0.0585631